NAME : kroD100-C-5-1-a__baseline_same_priority_ls20__28672.tour
COMMENT : Length = 28672.000
COMMENT : Generated by evaluate_ctspd.py for baseline_same_priority_ls20
TYPE : TOUR
DIMENSION : 100
TOUR_SECTION
21
47
28
12
82
14
68
33
45
99
31
65
1
50
94
32
97
17
90
98
49
70
89
11
13
79
88
24
27
81
34
38
66
23
42
22
58
29
36
67
75
7
74
61
76
80
78
57
72
46
8
52
69
86
96
16
15
84
62
35
30
100
51
37
19
2
48
92
87
26
55
9
10
95
56
20
25
18
85
64
77
91
54
63
41
73
39
43
71
4
93
44
60
53
5
3
83
40
59
6
-1
EOF
